Pt 
    50.4953999999999965 
          1.0000000000000000 0.0000000000000000 0.0000000000000000 
          0.0000000000000000 0.8660254037001391 0.0000000000000000 
          0.0000000000000000 0.0000000000000000 0.8646934740110790 
  He N Pt 
  3 1 972 
Selective dynamics 
Direct 
     0.118255841126 0.090471413987 0.16081848  F           F           F           
     0.145759554336 0.111639803355 0.16246412  F           F           F           
     0.147861627000 0.073472193444 0.16192658  F           F           F           
     0.137604593686 0.092003120865 0.15347755  F           F           F           
     0.0000000000000000 0.0000000000000000 0           F           F           F           
     0.0277777777777778 0.0555555554412183 0           F           F           F           
     0.0555555555555556 0.0000000000000000 0           F           F           F           
     0.0833333333333333 0.0555555554412183 0           F           F           F           
     0.0555555555555556 0.0740740740740741 0.052459166 F           F           F           
     0.0277777777777778 0.0185185184041813 0.052459166 F           F           F           
     0.0000000000000000 0.0740740740740741 0.052459166 F           F           F           
     0.0833333333333333 0.0185185184041813 0.052459166 F           F           F           
     0.0833333333333333 0.0925925927069298 0.10491815  F           F           F           
     0.0555555555555556 0.0370370370370370 0.10491815  F           F           F           
     0.0277777777777778 0.0925925927069298 0.10491815  F           F           F           
     0.0000000000000000 0.0370370370370370 0.10491815  F           F           F           
     0.1111111111111111 0.0000000000000000 0           F           F           F           
     0.2222222222222222 0.0000000000000000 0           F           F           F           
     0.3333333333333334 0.0000000000000000 0           F           F           F           
     0.4444444444444445 0.0000000000000000 0           F           F           F           
     0.5555555555555556 0.0000000000000000 0           F           F           F           
     0.6666666666666667 0.0000000000000000 0           F           F           F           
     0.7777777777777778 0.0000000000000000 0           F           F           F           
     0.8888888888888890 0.0000000000000000 0           F           F           F           
     0.1388888888888889 0.0555555554412183 0           F           F           F           
     0.2500000000000001 0.0555555554412183 0           F           F           F           
     0.3611111111111111 0.0555555554412183 0           F           F           F           
     0.4722222222222223 0.0555555554412183 0           F           F           F           
     0.5833333333333334 0.0555555554412183 0           F           F           F           
     0.6944444444444444 0.0555555554412183 0           F           F           F           
     0.8055555555555556 0.0555555554412183 0           F           F           F           
     0.9166666666666667 0.0555555554412183 0           F           F           F           
     0.1666666666666667 0.0000000000000000 0           F           F           F           
     0.2777777777777778 0.0000000000000000 0           F           F           F           
     0.3888888888888889 0.0000000000000000 0           F           F           F           
     0.5000000000000000 0.0000000000000000 0           F           F           F           
     0.6111111111111112 0.0000000000000000 0           F           F           F           
     0.7222222222222222 0.0000000000000000 0           F           F           F           
     0.8333333333333335 0.0000000000000000 0           F           F           F           
     0.9444444444444445 0.0000000000000000 0           F           F           F           
     0.1944444444444444 0.0555555554412183 0           F           F           F           
     0.3055555555555556 0.0555555554412183 0           F           F           F           
     0.4166666666666667 0.0555555554412183 0           F           F           F           
     0.5277777777777778 0.0555555554412183 0           F           F           F           
     0.6388888888888890 0.0555555554412183 0           F           F           F           
     0.7500000000000000 0.0555555554412183 0           F           F           F           
     0.8611111111111110 0.0555555554412183 0           F           F           F           
     0.9722222222222223 0.0555555554412183 0           F           F           F           
     0.1666666666666667 0.0740740740740741 0.052459166 F           F           F           
     0.2777777777777778 0.0740740740740741 0.052459166 F           F           F           
     0.3888888888888889 0.0740740740740741 0.052459166 F           F           F           
     0.5000000000000000 0.0740740740740741 0.052459166 F           F           F           
     0.6111111111111112 0.0740740740740741 0.052459166 F           F           F           
     0.7222222222222222 0.0740740740740741 0.052459166 F           F           F           
     0.8333333333333335 0.0740740740740741 0.052459166 F           F           F           
     0.9444444444444445 0.0740740740740741 0.052459166 F           F           F           
     0.1388888888888889 0.0185185184041813 0.052459166 F           F           F           
     0.2500000000000001 0.0185185184041813 0.052459166 F           F           F           
     0.3611111111111111 0.0185185184041813 0.052459166 F           F           F           
     0.4722222222222223 0.0185185184041813 0.052459166 F           F           F           
     0.5833333333333334 0.0185185184041813 0.052459166 F           F           F           
     0.6944444444444444 0.0185185184041813 0.052459166 F           F           F           
     0.8055555555555556 0.0185185184041813 0.052459166 F           F           F           
     0.9166666666666667 0.0185185184041813 0.052459166 F           F           F           
     0.1111111111111111 0.0740740740740741 0.052459166 F           F           F           
     0.2222222222222222 0.0740740740740741 0.052459166 F           F           F           
     0.3333333333333334 0.0740740740740741 0.052459166 F           F           F           
     0.4444444444444445 0.0740740740740741 0.052459166 F           F           F           
     0.5555555555555556 0.0740740740740741 0.052459166 F           F           F           
     0.6666666666666667 0.0740740740740741 0.052459166 F           F           F           
     0.7777777777777778 0.0740740740740741 0.052459166 F           F           F           
     0.8888888888888890 0.0740740740740741 0.052459166 F           F           F           
     0.1944444444444444 0.0185185184041813 0.052459166 F           F           F           
     0.3055555555555556 0.0185185184041813 0.052459166 F           F           F           
     0.4166666666666667 0.0185185184041813 0.052459166 F           F           F           
     0.5277777777777778 0.0185185184041813 0.052459166 F           F           F           
     0.6388888888888890 0.0185185184041813 0.052459166 F           F           F           
     0.7500000000000000 0.0185185184041813 0.052459166 F           F           F           
     0.8611111111111110 0.0185185184041813 0.052459166 F           F           F           
     0.9722222222222223 0.0185185184041813 0.052459166 F           F           F           
     0.1944444444444444 0.0925925927069298 0.10491815  F           F           F           
     0.3055555555555556 0.0925925927069298 0.10491815  F           F           F           
     0.4166666666666667 0.0925925927069298 0.10491815  F           F           F           
     0.5277777777777778 0.0925925927069298 0.10491815  F           F           F           
     0.6388888888888890 0.0925925927069298 0.10491815  F           F           F           
     0.7500000000000000 0.0925925927069298 0.10491815  F           F           F           
     0.8611111111111110 0.0925925927069298 0.10491815  F           F           F           
     0.9722222222222223 0.0925925927069298 0.10491815  F           F           F           
     0.1666666666666667 0.0370370370370370 0.10491815  F           F           F           
     0.2777777777777778 0.0370370370370370 0.10491815  F           F           F           
     0.3888888888888889 0.0370370370370370 0.10491815  F           F           F           
     0.5000000000000000 0.0370370370370370 0.10491815  F           F           F           
     0.6111111111111112 0.0370370370370370 0.10491815  F           F           F           
     0.7222222222222222 0.0370370370370370 0.10491815  F           F           F           
     0.8333333333333335 0.0370370370370370 0.10491815  F           F           F           
     0.9444444444444445 0.0370370370370370 0.10491815  F           F           F           
     0.1388888888888889 0.0925925927069298 0.10491815  F           F           F           
     0.2500000000000001 0.0925925927069298 0.10491815  F           F           F           
     0.3611111111111111 0.0925925927069298 0.10491815  F           F           F           
     0.4722222222222223 0.0925925927069298 0.10491815  F           F           F           
     0.5833333333333334 0.0925925927069298 0.10491815  F           F           F           
     0.6944444444444444 0.0925925927069298 0.10491815  F           F           F           
     0.8055555555555556 0.0925925927069298 0.10491815  F           F           F           
     0.9166666666666667 0.0925925927069298 0.10491815  F           F           F           
     0.1111111111111111 0.0370370370370370 0.10491815  F           F           F           
     0.2222222222222222 0.0370370370370370 0.10491815  F           F           F           
     0.3333333333333334 0.0370370370370370 0.10491815  F           F           F           
     0.4444444444444445 0.0370370370370370 0.10491815  F           F           F           
     0.5555555555555556 0.0370370370370370 0.10491815  F           F           F           
     0.6666666666666667 0.0370370370370370 0.10491815  F           F           F           
     0.7777777777777778 0.0370370370370370 0.10491815  F           F           F           
     0.8888888888888890 0.0370370370370370 0.10491815  F           F           F           
     0.0000000000000000 0.1111111111111111 0           F           F           F           
     0.0000000000000000 0.2222222222222222 0           F           F           F           
     0.0000000000000000 0.3333333333333333 0           F           F           F           
     0.0000000000000000 0.4444444444444444 0           F           F           F           
     0.0000000000000000 0.5555555555555555 0           F           F           F           
     0.0000000000000000 0.6666666666666665 0           F           F           F           
     0.0000000000000000 0.7777777777777778 0           F           F           F           
     0.0000000000000000 0.8888888888888887 0           F           F           F           
     0.0277777777777778 0.1666666665523295 0           F           F           F           
     0.0277777777777778 0.2777777776634405 0           F           F           F           
     0.0277777777777778 0.3888888890032261 0           F           F           F           
     0.0277777777777778 0.4999999998856627 0           F           F           F           
     0.0277777777777778 0.6111111109967738 0           F           F           F           
     0.0277777777777778 0.7222222223365594 0           F           F           F           
     0.0277777777777778 0.8333333334476704 0           F           F           F           
     0.0277777777777778 0.9444444443301071 0           F           F           F           
     0.0555555555555556 0.1111111111111111 0           F           F           F           
     0.0555555555555556 0.2222222222222222 0           F           F           F           
     0.0555555555555556 0.3333333333333333 0           F           F           F           
     0.0555555555555556 0.4444444444444444 0           F           F           F           
     0.0555555555555556 0.5555555555555555 0           F           F           F           
     0.0555555555555556 0.6666666666666665 0           F           F           F           
     0.0555555555555556 0.7777777777777778 0           F           F           F           
     0.0555555555555556 0.8888888888888887 0           F           F           F           
     0.0833333333333333 0.1666666665523295 0           F           F           F           
     0.0833333333333333 0.2777777776634405 0           F           F           F           
     0.0833333333333333 0.3888888890032261 0           F           F           F           
     0.0833333333333333 0.4999999998856627 0           F           F           F           
     0.0833333333333333 0.6111111109967738 0           F           F           F           
     0.0833333333333333 0.7222222223365594 0           F           F           F           
     0.0833333333333333 0.8333333334476704 0           F           F           F           
     0.0833333333333333 0.9444444443301071 0           F           F           F           
     0.0555555555555556 0.1851851851851851 0.052459166 F           F           F           
     0.0555555555555556 0.2962962962962963 0.052459166 F           F           F           
     0.0555555555555556 0.4074074074074074 0.052459166 F           F           F           
     0.0555555555555556 0.5185185185185185 0.052459166 F           F           F           
     0.0555555555555556 0.6296296296296295 0.052459166 F           F           F           
     0.0555555555555556 0.7407407407407406 0.052459166 F           F           F           
     0.0555555555555556 0.8518518518518517 0.052459166 F           F           F           
     0.0555555555555556 0.9629629629629629 0.052459166 F           F           F           
     0.0277777777777778 0.1296296295152924 0.052459166 F           F           F           
     0.0277777777777778 0.2407407406264035 0.052459166 F           F           F           
     0.0277777777777778 0.3518518519661890 0.052459166 F           F           F           
     0.0277777777777778 0.4629629628486256 0.052459166 F           F           F           
     0.0277777777777778 0.5740740739597369 0.052459166 F           F           F           
     0.0277777777777778 0.6851851852995223 0.052459166 F           F           F           
     0.0277777777777778 0.7962962964106334 0.052459166 F           F           F           
     0.0277777777777778 0.9074074072930701 0.052459166 F           F           F           
     0.0000000000000000 0.1851851851851851 0.052459166 F           F           F           
     0.0000000000000000 0.2962962962962963 0.052459166 F           F           F           
     0.0000000000000000 0.4074074074074074 0.052459166 F           F           F           
     0.0000000000000000 0.5185185185185185 0.052459166 F           F           F           
     0.0000000000000000 0.6296296296296295 0.052459166 F           F           F           
     0.0000000000000000 0.7407407407407406 0.052459166 F           F           F           
     0.0000000000000000 0.8518518518518517 0.052459166 F           F           F           
     0.0000000000000000 0.9629629629629629 0.052459166 F           F           F           
     0.0833333333333333 0.1296296295152924 0.052459166 F           F           F           
     0.0833333333333333 0.2407407406264035 0.052459166 F           F           F           
     0.0833333333333333 0.3518518519661890 0.052459166 F           F           F           
     0.0833333333333333 0.4629629628486256 0.052459166 F           F           F           
     0.0833333333333333 0.5740740739597369 0.052459166 F           F           F           
     0.0833333333333333 0.6851851852995223 0.052459166 F           F           F           
     0.0833333333333333 0.7962962964106334 0.052459166 F           F           F           
     0.0833333333333333 0.9074074072930701 0.052459166 F           F           F           
     0.0833333333333333 0.2037037038180409 0.10491815  F           F           F           
     0.0833333333333333 0.3148148149291520 0.10491815  F           F           F           
     0.0833333333333333 0.4259259260402631 0.10491815  F           F           F           
     0.0833333333333333 0.5370370371513742 0.10491815  F           F           F           
     0.0833333333333333 0.6481481482624852 0.10491815  F           F           F           
     0.0833333333333333 0.7592592593735964 0.10491815  F           F           F           
     0.0833333333333333 0.8703703704847076 0.10491815  F           F           F           
     0.0833333333333333 0.9814814815958186 0.10491815  F           F           F           
     0.0555555555555556 0.1481481481481481 0.10491815  F           F           F           
     0.0555555555555556 0.2592592592592592 0.10491815  F           F           F           
     0.0555555555555556 0.3703703703703703 0.10491815  F           F           F           
     0.0555555555555556 0.4814814814814815 0.10491815  F           F           F           
     0.0555555555555556 0.5925925925925926 0.10491815  F           F           F           
     0.0555555555555556 0.7037037037037036 0.10491815  F           F           F           
     0.0555555555555556 0.8148148148148148 0.10491815  F           F           F           
     0.0555555555555556 0.9259259259259258 0.10491815  F           F           F           
     0.0277777777777778 0.2037037038180409 0.10491815  F           F           F           
     0.0277777777777778 0.3148148149291520 0.10491815  F           F           F           
     0.0277777777777778 0.4259259260402631 0.10491815  F           F           F           
     0.0277777777777778 0.5370370371513742 0.10491815  F           F           F           
     0.0277777777777778 0.6481481482624852 0.10491815  F           F           F           
     0.0277777777777778 0.7592592593735964 0.10491815  F           F           F           
     0.0277777777777778 0.8703703704847076 0.10491815  F           F           F           
     0.0277777777777778 0.9814814815958186 0.10491815  F           F           F           
     0.0000000000000000 0.1481481481481481 0.10491815  F           F           F           
     0.0000000000000000 0.2592592592592592 0.10491815  F           F           F           
     0.0000000000000000 0.3703703703703703 0.10491815  F           F           F           
     0.0000000000000000 0.4814814814814815 0.10491815  F           F           F           
     0.0000000000000000 0.5925925925925926 0.10491815  F           F           F           
     0.0000000000000000 0.7037037037037036 0.10491815  F           F           F           
     0.0000000000000000 0.8148148148148148 0.10491815  F           F           F           
     0.0000000000000000 0.9259259259259258 0.10491815  F           F           F           
     0.1111111111111111 0.1111111111111111 0           F           F           F           
     0.1111111111111111 0.2222222222222222 0           F           F           F           
     0.1111111111111111 0.3333333333333333 0           F           F           F           
     0.1111111111111111 0.4444444444444444 0           F           F           F           
     0.1111111111111111 0.5555555555555555 0           F           F           F           
     0.1111111111111111 0.6666666666666665 0           F           F           F           
     0.1111111111111111 0.7777777777777778 0           F           F           F           
     0.1111111111111111 0.8888888888888887 0           F           F           F           
     0.2222222222222222 0.1111111111111111 0           F           F           F           
     0.2222222222222222 0.2222222222222222 0           F           F           F           
     0.2222222222222222 0.3333333333333333 0           F           F           F           
     0.2222222222222222 0.4444444444444444 0           F           F           F           
     0.2222222222222222 0.5555555555555555 0           F           F           F           
     0.2222222222222222 0.6666666666666665 0           F           F           F           
     0.2222222222222222 0.7777777777777778 0           F           F           F           
     0.2222222222222222 0.8888888888888887 0           F           F           F           
     0.3333333333333334 0.1111111111111111 0           F           F           F           
     0.3333333333333334 0.2222222222222222 0           F           F           F           
     0.3333333333333334 0.3333333333333333 0           F           F           F           
     0.3333333333333334 0.4444444444444444 0           F           F           F           
     0.3333333333333334 0.5555555555555555 0           F           F           F           
     0.3333333333333334 0.6666666666666665 0           F           F           F           
     0.3333333333333334 0.7777777777777778 0           F           F           F           
     0.3333333333333334 0.8888888888888887 0           F           F           F           
     0.4444444444444445 0.1111111111111111 0           F           F           F           
     0.4444444444444445 0.2222222222222222 0           F           F           F           
     0.4444444444444445 0.3333333333333333 0           F           F           F           
     0.4444444444444445 0.4444444444444444 0           F           F           F           
     0.4444444444444445 0.5555555555555555 0           F           F           F           
     0.4444444444444445 0.6666666666666665 0           F           F           F           
     0.4444444444444445 0.7777777777777778 0           F           F           F           
     0.4444444444444445 0.8888888888888887 0           F           F           F           
     0.5555555555555556 0.1111111111111111 0           F           F           F           
     0.5555555555555556 0.2222222222222222 0           F           F           F           
     0.5555555555555556 0.3333333333333333 0           F           F           F           
     0.5555555555555556 0.4444444444444444 0           F           F           F           
     0.5555555555555556 0.5555555555555555 0           F           F           F           
     0.5555555555555556 0.6666666666666665 0           F           F           F           
     0.5555555555555556 0.7777777777777778 0           F           F           F           
     0.5555555555555556 0.8888888888888887 0           F           F           F           
     0.6666666666666667 0.1111111111111111 0           F           F           F           
     0.6666666666666667 0.2222222222222222 0           F           F           F           
     0.6666666666666667 0.3333333333333333 0           F           F           F           
     0.6666666666666667 0.4444444444444444 0           F           F           F           
     0.6666666666666667 0.5555555555555555 0           F           F           F           
     0.6666666666666667 0.6666666666666665 0           F           F           F           
     0.6666666666666667 0.7777777777777778 0           F           F           F           
     0.6666666666666667 0.8888888888888887 0           F           F           F           
     0.7777777777777778 0.1111111111111111 0           F           F           F           
     0.7777777777777778 0.2222222222222222 0           F           F           F           
     0.7777777777777778 0.3333333333333333 0           F           F           F           
     0.7777777777777778 0.4444444444444444 0           F           F           F           
     0.7777777777777778 0.5555555555555555 0           F           F           F           
     0.7777777777777778 0.6666666666666665 0           F           F           F           
     0.7777777777777778 0.7777777777777778 0           F           F           F           
     0.7777777777777778 0.8888888888888887 0           F           F           F           
     0.8888888888888890 0.1111111111111111 0           F           F           F           
     0.8888888888888890 0.2222222222222222 0           F           F           F           
     0.8888888888888890 0.3333333333333333 0           F           F           F           
     0.8888888888888890 0.4444444444444444 0           F           F           F           
     0.8888888888888890 0.5555555555555555 0           F           F           F           
     0.8888888888888890 0.6666666666666665 0           F           F           F           
     0.8888888888888890 0.7777777777777778 0           F           F           F           
     0.8888888888888890 0.8888888888888887 0           F           F           F           
     0.1388888888888889 0.1666666665523295 0           F           F           F           
     0.1388888888888889 0.2777777776634405 0           F           F           F           
     0.1388888888888889 0.3888888890032261 0           F           F           F           
     0.1388888888888889 0.4999999998856627 0           F           F           F           
     0.1388888888888889 0.6111111109967738 0           F           F           F           
     0.1388888888888889 0.7222222223365594 0           F           F           F           
     0.1388888888888889 0.8333333334476704 0           F           F           F           
     0.1388888888888889 0.9444444443301071 0           F           F           F           
     0.2500000000000001 0.1666666665523295 0           F           F           F           
     0.2500000000000001 0.2777777776634405 0           F           F           F           
     0.2500000000000001 0.3888888890032261 0           F           F           F           
     0.2500000000000001 0.4999999998856627 0           F           F           F           
     0.2500000000000001 0.6111111109967738 0           F           F           F           
     0.2500000000000001 0.7222222223365594 0           F           F           F           
     0.2500000000000001 0.8333333334476704 0           F           F           F           
     0.2500000000000001 0.9444444443301071 0           F           F           F           
     0.3611111111111111 0.1666666665523295 0           F           F           F           
     0.3611111111111111 0.2777777776634405 0           F           F           F           
     0.3611111111111111 0.3888888890032261 0           F           F           F           
     0.3611111111111111 0.4999999998856627 0           F           F           F           
     0.3611111111111111 0.6111111109967738 0           F           F           F           
     0.3611111111111111 0.7222222223365594 0           F           F           F           
     0.3611111111111111 0.8333333334476704 0           F           F           F           
     0.3611111111111111 0.9444444443301071 0           F           F           F           
     0.4722222222222223 0.1666666665523295 0           F           F           F           
     0.4722222222222223 0.2777777776634405 0           F           F           F           
     0.4722222222222223 0.3888888890032261 0           F           F           F           
     0.4722222222222223 0.4999999998856627 0           F           F           F           
     0.4722222222222223 0.6111111109967738 0           F           F           F           
     0.4722222222222223 0.7222222223365594 0           F           F           F           
     0.4722222222222223 0.8333333334476704 0           F           F           F           
     0.4722222222222223 0.9444444443301071 0           F           F           F           
     0.5833333333333334 0.1666666665523295 0           F           F           F           
     0.5833333333333334 0.2777777776634405 0           F           F           F           
     0.5833333333333334 0.3888888890032261 0           F           F           F           
     0.5833333333333334 0.4999999998856627 0           F           F           F           
     0.5833333333333334 0.6111111109967738 0           F           F           F           
     0.5833333333333334 0.7222222223365594 0           F           F           F           
     0.5833333333333334 0.8333333334476704 0           F           F           F           
     0.5833333333333334 0.9444444443301071 0           F           F           F           
     0.6944444444444444 0.1666666665523295 0           F           F           F           
     0.6944444444444444 0.2777777776634405 0           F           F           F           
     0.6944444444444444 0.3888888890032261 0           F           F           F           
     0.6944444444444444 0.4999999998856627 0           F           F           F           
     0.6944444444444444 0.6111111109967738 0           F           F           F           
     0.6944444444444444 0.7222222223365594 0           F           F           F           
     0.6944444444444444 0.8333333334476704 0           F           F           F           
     0.6944444444444444 0.9444444443301071 0           F           F           F           
     0.8055555555555556 0.1666666665523295 0           F           F           F           
     0.8055555555555556 0.2777777776634405 0           F           F           F           
     0.8055555555555556 0.3888888890032261 0           F           F           F           